\ This file has been generated by DOcplex
\ ENCODING=ISO-8859-1
\Problem name: random_problem.lp

Minimize
 obj: 6 x2 - x5 + 5 x6 - 3 x12 + 7 x14 + x15 + x16 - 3 x17 + [ 18 x0^2 - 8 x0*x2
      - 12 x0*x3 - 16 x0*x4 - 4 x0*x10 + 4 x0*x11 + 14 x0*x13 - 4 x0*x14
      + 4 x0*x15 - 12 x0*x17 + 16 x1^2 - 16 x1*x3 - 16 x1*x5 + 12 x1*x13
      + 18 x2^2 + 18 x2*x7 + 2 x2*x10 + 6 x2*x11 - 14 x2*x17 + 6 x3*x5 - 6 x3*x6
      + 14 x3*x8 - 8 x3*x10 - 8 x3*x11 - 6 x3*x13 - 2 x3*x16 + 18 x4^2
      + 18 x4*x7 - 18 x4*x9 - 8 x4*x10 + 18 x4*x14 - 20 x5*x7 + 8 x5*x8
      + 18 x5*x9 - 16 x5*x10 - 10 x5*x14 - 4 x5*x16 - 12 x5*x17 - 12 x6*x7
      - 14 x6*x11 + 16 x6*x15 + 4 x6*x16 - 16 x7^2 - 8 x7*x10 + 10 x7*x11
      - 20 x7*x12 - 14 x7*x13 - 18 x7*x14 + 16 x7*x16 + 4 x8^2 - 12 x8*x14
      - 18 x8*x16 + 10 x8*x17 + 16 x9*x10 + 16 x9*x11 - 18 x9*x12 + 6 x9*x13
      + 12 x10^2 + 4 x10*x11 - 18 x10*x13 - 8 x10*x16 + 2 x11^2 + 2 x11*x12
      - 6 x11*x14 + 18 x11*x17 + 8 x12^2 - 2 x12*x13 - 10 x12*x15 - 4 x12*x16
      - 18 x13^2 - 6 x13*x15 + 16 x13*x16 - 14 x13*x17 + 2 x14^2 + 10 x14*x16
      - 2 x15^2 + 14 x15*x17 + 16 x16^2 ]/2
Subject To
 c0: - 2 x0 + x1 + x6 + 2 x7 - 2 x8 - x10 + x12 + 2 x16 - x17 = -2
 c1: - 2 x2 - x3 - 2 x9 + 2 x10 - x12 + 2 x13 + x14 + 2 x15 - x16 = 1
 c2: 2 x0 - 2 x4 - 2 x8 + 2 x9 + x10 - 2 x13 - 2 x14 - 2 x16 + 2 x17 = -2
 c3: x1 - 2 x2 - 2 x6 + 2 x7 - 2 x10 - 2 x13 + x14 + 2 x15 - x17 = -1

Bounds
 0 <= x0 <= 1
 0 <= x1 <= 1
 0 <= x2 <= 1
 0 <= x3 <= 1
 0 <= x4 <= 1
 0 <= x5 <= 1
 0 <= x6 <= 1
 0 <= x7 <= 1
 0 <= x8 <= 1
 0 <= x9 <= 1
 0 <= x10 <= 1
 0 <= x11 <= 1
 0 <= x12 <= 1
 0 <= x13 <= 1
 0 <= x14 <= 1
 0 <= x15 <= 1
 0 <= x16 <= 1
 0 <= x17 <= 1

Binaries
 x0 x1 x2 x3 x4 x5 x6 x7 x8 x9 x10 x11 x12 x13 x14 x15 x16 x17
End
